
===== New CPLEX run =====
Instance: /home/yorig/tuner/mpils-tests/instances/miplib/medium-1/neos-3024952-loue.mps
Config: /scratch/yorig/mpils-results-grid-seconds-10-no-mip-start/medium-1/4proc/seed-4/9_neos-3024952-loue_seed-4_20260503_044340/iterated_local_search/run_2_worker_1/ils_config_9409812541686994185.prm
========================

Selected objective sense:  MINIMIZE
Selected objective  name:  R3706
Selected RHS        name:  B
Selected bound      name:  BOUND
Version identifier: 22.1.2.0 | 2024-11-26 | 0edbb82fd
CPXPARAM_Threads                                 8
CPXPARAM_Parallel                                1
CPXPARAM_MIP_Cuts_Cliques                        2
CPXPARAM_MIP_Cuts_FlowCovers                     -1
CPXPARAM_MIP_Cuts_Implied                        -1
CPXPARAM_MIP_Cuts_GUBCovers                      2
CPXPARAM_MIP_Cuts_PathCut                        2
CPXPARAM_MIP_Cuts_MIRCut                         2
CPXPARAM_Emphasis_MIP                            1
CPXPARAM_TimeLimit                               10
CPXPARAM_MIP_Limits_ProbeTime                    60
27 of 27 MIP starts provided solutions.
MIP start 'm1' defined initial solution with objective 27890.0000.
Tried aggregator 2 times.
MIP Presolve eliminated 40 rows and 0 columns.
MIP Presolve modified 80 coefficients.
Aggregator did 32 substitutions.
Reduced MIP has 3633 rows, 3223 columns, and 15906 nonzeros.
Reduced MIP has 0 binaries, 3223 generals, 0 SOSs, and 0 indicators.
Presolve time = 0.01 sec. (7.72 ticks)
Tried aggregator 1 time.
Detecting symmetries...
Reduced MIP has 3633 rows, 3223 columns, and 15906 nonzeros.
Reduced MIP has 0 binaries, 3223 generals, 0 SOSs, and 0 indicators.
Presolve time = 0.01 sec. (8.53 ticks)
MIP emphasis: integer feasibility.
MIP search method: dynamic search.
Parallel mode: deterministic, using up to 8 threads.
Root relaxation solution time = 0.13 sec. (166.79 ticks)

        Nodes                                         Cuts/
   Node  Left     Objective  IInf  Best Integer    Best Bound    ItCnt     Gap

*     0+    0                        27890.0000 -3965000.0000              --- 
      0     0    22882.0000   397    27890.0000    22882.0000     3901   17.96%
      0     0    23621.5017   727    27890.0000     Cuts: 491     4422   15.30%
      0     0    23799.4952   886    27890.0000     Cuts: 232     4569   14.67%
      0     0    23874.9587   882    27890.0000     Cuts: 133     4628   14.40%
*     0+    0                        27870.0000    23874.9587            14.33%
      0     0  -1.00000e+75     0    27870.0000    23874.9587     4628   14.33%
Detecting symmetries...
      0     2    23874.9587   882    27870.0000    23874.9587     4628   14.33%
Elapsed time = 0.44 sec. (532.46 ticks, tree = 0.02 MB, solutions = 28)
*    53+    3                        27850.0000    23886.9587            14.23%
    647   560    23972.8355   776    27850.0000    23886.9587     9710   14.23%
   1457  1260    24152.0846   741    27850.0000    23886.9587    16326   14.23%

Performing restart 1

Repeating presolve.
Tried aggregator 1 time.
MIP Presolve modified 16 coefficients.
Reduced MIP has 3633 rows, 3223 columns, and 15892 nonzeros.
Reduced MIP has 0 binaries, 3223 generals, 0 SOSs, and 0 indicators.
Presolve time = 0.00 sec. (6.35 ticks)
Tried aggregator 1 time.
Reduced MIP has 3633 rows, 3223 columns, and 15892 nonzeros.
Reduced MIP has 0 binaries, 3223 generals, 0 SOSs, and 0 indicators.
Presolve time = 0.01 sec. (8.75 ticks)
Represolve time = 0.02 sec. (24.35 ticks)
*  1772+    0                        27810.0000    23887.0405            14.11%
   1772     0    24054.5357   952    27810.0000     Cuts: 272    27927   13.50%
*  1772+    0                        27790.0000    24054.5357            13.44%
   1772     0    24271.7791  1022    27790.0000     Cuts: 253    28145   12.66%
   1772     0    24467.6002  1223    27790.0000     Cuts: 248    28328   11.96%
   1772     2    24467.6002  1223    27790.0000    24467.6002    28328   11.96%
   1957   106    24780.5085   945    27790.0000    24516.6648    32923   11.78%
   2705   882    24897.0251   860    27790.0000    24516.6648    41159   11.78%
   3379  1476    25352.0035   785    27790.0000    24516.6648    48842   11.78%
   4037  2064    25198.5275   798    27790.0000    24516.6648    57746   11.78%
   4659  2769    25397.3067   759    27790.0000    24516.6648    68701   11.78%
   5282  3315    26070.5991   678    27790.0000    24516.6648    79011   11.78%
   7909  5735    25326.2880   781    27790.0000    24516.6648   121480   11.78%
Elapsed time = 3.04 sec. (4288.45 ticks, tree = 19.45 MB, solutions = 32)
*  9694+ 7390                        27770.0000    24516.6648            11.72%
* 10104+ 7920                        27750.0000    24516.6648            11.65%
  10611  8396    26282.9187   581    27750.0000    24516.6648   157045   11.65%
* 12303+ 9757                        27640.0000    24516.6648            11.30%
  13644 10977    26022.6556   667    27640.0000    24516.6648   195245   11.30%
  17434 14504    26995.7249   540    27640.0000    24516.6648   230615   11.30%
  21015 18284    25210.2642   793    27640.0000    24516.6648   269766   11.30%
  23890 21215    25981.6789   497    27640.0000    24516.6648   305603   11.30%
  27057 23861    25599.3670   729    27640.0000    24516.6648   338748   11.30%
  30737 27429    26633.9885   454    27640.0000    24516.6648   375046   11.30%
  34424 30983    26786.4225   615    27640.0000    24516.6648   410912   11.30%
  36176 33220    25336.5292   837    27640.0000    24516.6648   434035   11.30%
* 36552+31533                        27600.0000    24516.6648            11.17%
* 37325+31842                        27540.0000    24516.6648            10.98%
  37587 34927    25446.8183   884    27540.0000    24516.6648   456509   10.98%
Elapsed time = 9.10 sec. (13829.22 ticks, tree = 120.43 MB, solutions = 35)
* 37848+35134                        27470.0000    24516.6648            10.75%
  37951 33590    26430.1828   403    27470.0000    24516.6648   458141   10.75%
* 38001+33675                        27452.0000    24516.6648            10.69%
* 38010+33675                        27440.0000    24516.6648            10.65%

GUB cover cuts applied:  0
Clique cuts applied:  0
Mixed integer rounding cuts applied:  452
Flow path cuts applied:  0
Zero-half cuts applied:  27
Gomory fractional cuts applied:  63

Root node processing (before b&c):
  Real time             =    0.43 sec. (530.95 ticks)
Parallel b&c, 8 threads:
  Real time             =    9.57 sec. (15132.12 ticks)
  Sync time (average)   =    0.60 sec.
  Wait time (average)   =    0.00 sec.
                          ------------
Total (root+branch&cut) =   10.01 sec. (15663.07 ticks)
Gap: 10.65%
Upper bound: 27440
Lower bound: 24516.7
End of CPLEX run. Time: 10.0064 seconds

===== New CPLEX run =====
Instance: /home/yorig/tuner/mpils-tests/instances/miplib/medium-1/neos-3024952-loue.mps
Config: /scratch/yorig/mpils-results-grid-seconds-10-no-mip-start/medium-1/4proc/seed-4/9_neos-3024952-loue_seed-4_20260503_044340/iterated_local_search/run_2_worker_1/ils_config_14781456713049706975.prm
========================

Selected objective sense:  MINIMIZE
Selected objective  name:  R3706
Selected RHS        name:  B
Selected bound      name:  BOUND
Version identifier: 22.1.2.0 | 2024-11-26 | 0edbb82fd
CPXPARAM_Threads                                 8
CPXPARAM_Parallel                                1
CPXPARAM_MIP_Cuts_Cliques                        2
CPXPARAM_MIP_Cuts_FlowCovers                     -1
CPXPARAM_MIP_Cuts_Implied                        -1
CPXPARAM_MIP_Cuts_GUBCovers                      2
CPXPARAM_MIP_Cuts_PathCut                        2
CPXPARAM_MIP_Cuts_MIRCut                         2
CPXPARAM_Emphasis_MIP                            1
CPXPARAM_TimeLimit                               10
CPXPARAM_MIP_Limits_ProbeTime                    0
27 of 27 MIP starts provided solutions.
MIP start 'm1' defined initial solution with objective 27890.0000.
Tried aggregator 2 times.
MIP Presolve eliminated 40 rows and 0 columns.
MIP Presolve modified 80 coefficients.
Aggregator did 32 substitutions.
Reduced MIP has 3633 rows, 3223 columns, and 15906 nonzeros.
Reduced MIP has 0 binaries, 3223 generals, 0 SOSs, and 0 indicators.
Presolve time = 0.01 sec. (7.72 ticks)
Tried aggregator 1 time.
Detecting symmetries...
Reduced MIP has 3633 rows, 3223 columns, and 15906 nonzeros.
Reduced MIP has 0 binaries, 3223 generals, 0 SOSs, and 0 indicators.
Presolve time = 0.01 sec. (8.53 ticks)
MIP emphasis: integer feasibility.
MIP search method: dynamic search.
Parallel mode: deterministic, using up to 8 threads.
Root relaxation solution time = 0.13 sec. (166.79 ticks)

        Nodes                                         Cuts/
   Node  Left     Objective  IInf  Best Integer    Best Bound    ItCnt     Gap

*     0+    0                        27890.0000 -3965000.0000              --- 
      0     0    22882.0000   397    27890.0000    22882.0000     3901   17.96%
      0     0    23621.5017   727    27890.0000     Cuts: 491     4422   15.30%
      0     0    23799.4952   886    27890.0000     Cuts: 232     4569   14.67%
      0     0    23874.9587   882    27890.0000     Cuts: 133     4628   14.40%
*     0+    0                        27870.0000    23874.9587            14.33%
      0     0  -1.00000e+75     0    27870.0000    23874.9587     4628   14.33%
Detecting symmetries...
      0     2    23874.9587   882    27870.0000    23874.9587     4628   14.33%
Elapsed time = 0.44 sec. (532.25 ticks, tree = 0.02 MB, solutions = 28)
*    53+    3                        27850.0000    23886.9587            14.23%
    647   560    23972.8355   776    27850.0000    23886.9587     9710   14.23%
   1457  1260    24152.0846   741    27850.0000    23886.9587    16326   14.23%

Performing restart 1

Repeating presolve.
Tried aggregator 1 time.
MIP Presolve modified 16 coefficients.
Reduced MIP has 3633 rows, 3223 columns, and 15892 nonzeros.
Reduced MIP has 0 binaries, 3223 generals, 0 SOSs, and 0 indicators.
Presolve time = 0.00 sec. (6.35 ticks)
Tried aggregator 1 time.
Reduced MIP has 3633 rows, 3223 columns, and 15892 nonzeros.
Reduced MIP has 0 binaries, 3223 generals, 0 SOSs, and 0 indicators.
Presolve time = 0.01 sec. (8.75 ticks)
Represolve time = 0.02 sec. (24.26 ticks)
*  1772+    0                        27810.0000    23887.0405            14.11%
   1772     0    24054.5357   952    27810.0000     Cuts: 272    27927   13.50%
*  1772+    0                        27790.0000    24054.5357            13.44%
   1772     0    24271.7791  1022    27790.0000     Cuts: 253    28145   12.66%
   1772     0    24467.6002  1223    27790.0000     Cuts: 248    28328   11.96%
   1772     2    24467.6002  1223    27790.0000    24467.6002    28328   11.96%
   1957   106    24780.5085   945    27790.0000    24516.6648    32923   11.78%
   2705   882    24897.0251   860    27790.0000    24516.6648    41159   11.78%
   3379  1476    25352.0035   785    27790.0000    24516.6648    48842   11.78%
   4037  2064    25198.5275   798    27790.0000    24516.6648    57746   11.78%
   4659  2769    25397.3067   759    27790.0000    24516.6648    68701   11.78%
   5282  3315    26070.5991   678    27790.0000    24516.6648    79011   11.78%
   7909  5735    25326.2880   781    27790.0000    24516.6648   121480   11.78%
Elapsed time = 3.04 sec. (4288.02 ticks, tree = 19.45 MB, solutions = 32)
*  9694+ 7390                        27770.0000    24516.6648            11.72%
* 10104+ 7920                        27750.0000    24516.6648            11.65%
  10611  8396    26282.9187   581    27750.0000    24516.6648   157045   11.65%
* 12303+ 9757                        27640.0000    24516.6648            11.30%
  13644 10977    26022.6556   667    27640.0000    24516.6648   195245   11.30%
  17434 14504    26995.7249   540    27640.0000    24516.6648   230615   11.30%
  21015 18284    25210.2642   793    27640.0000    24516.6648   269766   11.30%
  23890 21215    25981.6789   497    27640.0000    24516.6648   305603   11.30%
  27057 23861    25599.3670   729    27640.0000    24516.6648   338748   11.30%
  30737 27429    26633.9885   454    27640.0000    24516.6648   375046   11.30%
  34424 30983    26786.4225   615    27640.0000    24516.6648   410912   11.30%
  36176 33220    25336.5292   837    27640.0000    24516.6648   434035   11.30%
* 36552+31533                        27600.0000    24516.6648            11.17%
* 37325+31842                        27540.0000    24516.6648            10.98%
  37587 34927    25446.8183   884    27540.0000    24516.6648   456509   10.98%
Elapsed time = 9.10 sec. (13828.79 ticks, tree = 120.43 MB, solutions = 35)
* 37848+35134                        27470.0000    24516.6648            10.75%
  37951 33590    26430.1828   403    27470.0000    24516.6648   458141   10.75%
* 38001+33675                        27452.0000    24516.6648            10.69%
* 38010+33675                        27440.0000    24516.6648            10.65%

GUB cover cuts applied:  0
Clique cuts applied:  0
Mixed integer rounding cuts applied:  452
Flow path cuts applied:  0
Zero-half cuts applied:  27
Gomory fractional cuts applied:  63

Root node processing (before b&c):
  Real time             =    0.43 sec. (530.73 ticks)
Parallel b&c, 8 threads:
  Real time             =    9.57 sec. (15130.18 ticks)
  Sync time (average)   =    0.59 sec.
  Wait time (average)   =    0.00 sec.
                          ------------
Total (root+branch&cut) =   10.00 sec. (15660.92 ticks)
Gap: 10.65%
Upper bound: 27440
Lower bound: 24516.7
End of CPLEX run. Time: 10.006 seconds

===== New CPLEX run =====
Instance: /home/yorig/tuner/mpils-tests/instances/miplib/medium-1/neos-3024952-loue.mps
Config: /scratch/yorig/mpils-results-grid-seconds-10-no-mip-start/medium-1/4proc/seed-4/9_neos-3024952-loue_seed-4_20260503_044340/iterated_local_search/run_2_worker_1/ils_config_6379484711363256582.prm
========================

Selected objective sense:  MINIMIZE
Selected objective  name:  R3706
Selected RHS        name:  B
Selected bound      name:  BOUND
Version identifier: 22.1.2.0 | 2024-11-26 | 0edbb82fd
CPXPARAM_Threads                                 8
CPXPARAM_Parallel                                1
CPXPARAM_MIP_Cuts_Cliques                        2
CPXPARAM_MIP_Cuts_FlowCovers                     -1
CPXPARAM_MIP_Cuts_Implied                        -1
CPXPARAM_MIP_Cuts_GUBCovers                      2
CPXPARAM_MIP_Limits_GomoryCand                   10
CPXPARAM_MIP_Cuts_PathCut                        2
CPXPARAM_MIP_Cuts_MIRCut                         2
CPXPARAM_Emphasis_MIP                            1
CPXPARAM_TimeLimit                               10
CPXPARAM_MIP_Limits_ProbeTime                    60
27 of 27 MIP starts provided solutions.
MIP start 'm1' defined initial solution with objective 27890.0000.
Tried aggregator 2 times.
MIP Presolve eliminated 40 rows and 0 columns.
MIP Presolve modified 80 coefficients.
Aggregator did 32 substitutions.
Reduced MIP has 3633 rows, 3223 columns, and 15906 nonzeros.
Reduced MIP has 0 binaries, 3223 generals, 0 SOSs, and 0 indicators.
Presolve time = 0.01 sec. (7.72 ticks)
Tried aggregator 1 time.
Detecting symmetries...
Reduced MIP has 3633 rows, 3223 columns, and 15906 nonzeros.
Reduced MIP has 0 binaries, 3223 generals, 0 SOSs, and 0 indicators.
Presolve time = 0.01 sec. (8.53 ticks)
MIP emphasis: integer feasibility.
MIP search method: dynamic search.
Parallel mode: deterministic, using up to 8 threads.
Root relaxation solution time = 0.13 sec. (166.79 ticks)

        Nodes                                         Cuts/
   Node  Left     Objective  IInf  Best Integer    Best Bound    ItCnt     Gap

*     0+    0                        27890.0000 -3965000.0000              --- 
      0     0    22882.0000   397    27890.0000    22882.0000     3901   17.96%
      0     0    23439.4381   685    27890.0000     Cuts: 399     4297   15.96%
      0     0    23493.3000   813    27890.0000     Cuts: 229     4395   15.76%
      0     0    23561.7194   860    27890.0000     Cuts: 181     4523   15.52%
*     0+    0                        27880.0000    23561.7194            15.49%
      0     0  -1.00000e+75     0    27880.0000    23561.7194     4523   15.49%
Detecting symmetries...
      0     2    23561.7194   860    27880.0000    23561.7194     4523   15.49%
Elapsed time = 0.35 sec. (415.40 ticks, tree = 0.02 MB, solutions = 28)
*    25+    1                        27860.0000    23561.7194            15.43%
    483   368    23692.1540   753    27860.0000    23579.5611    10276   15.36%
   1264  1159    23828.8206   731    27860.0000    23579.5611    20339   15.36%

Performing restart 1

Repeating presolve.
Tried aggregator 1 time.
MIP Presolve modified 16 coefficients.
Reduced MIP has 3633 rows, 3223 columns, and 15892 nonzeros.
Reduced MIP has 0 binaries, 3223 generals, 0 SOSs, and 0 indicators.
Presolve time = 0.00 sec. (6.35 ticks)
Tried aggregator 1 time.
Reduced MIP has 3633 rows, 3223 columns, and 15892 nonzeros.
Reduced MIP has 0 binaries, 3223 generals, 0 SOSs, and 0 indicators.
Presolve time = 0.01 sec. (8.75 ticks)
Represolve time = 0.02 sec. (22.27 ticks)
   1759     0    23652.9143   897    27860.0000     Cuts: 294    35386   15.10%
*  1759+    0                        27840.0000    23652.9143            15.04%
   1759     0    24066.0493   965    27840.0000     Cuts: 274    35655   13.56%
   1759     0    24194.4687  1218    27840.0000     Cuts: 229    35841   13.09%
   1759     2    24194.4687  1218    27840.0000    24194.4687    35841   13.09%
   1924    90    24878.1948   967    27840.0000    24243.0720    39246   12.92%
   2524   632    24806.9317   760    27840.0000    24243.0720    45848   12.92%
   3254  1384    25058.7745   767    27840.0000    24243.0720    53971   12.92%
   3983  1975    25360.8548   655    27840.0000    24243.0720    61143   12.92%
   4723  2827    25542.6105   672    27840.0000    24243.0720    71900   12.92%
   5473  3602    25886.8798   627    27840.0000    24243.0720    80878   12.92%
   8263  6294    25114.7181   786    27840.0000    24243.0720   119700   12.92%
Elapsed time = 2.98 sec. (4222.56 ticks, tree = 25.34 MB, solutions = 32)
*  9870+ 7560                        27810.0000    24243.0720            12.83%
  11136  8869    26082.9260   513    27810.0000    24243.0720   152621   12.83%
* 13812+11433                        27790.0000    24243.0720            12.76%
  14240 11828    25833.8844   644    27790.0000    24243.0720   191691   12.76%
  18395 15308    25104.1838   825    27790.0000    24243.0720   220077   12.76%
  22525 19734    26051.0595   560    27790.0000    24243.0720   253827   12.76%
  25742 22931    25867.2633   473    27790.0000    24243.0720   285569   12.76%
  28721 26054    24864.8636  1070    27790.0000    24243.0720   322563   12.76%
  32528 28914    25436.7571   705    27790.0000    24243.0720   348022   12.76%
  35741 33090    25372.3800   848    27790.0000    24243.0720   377365   12.76%
* 37674+31936                        27739.0000    24243.0720            12.60%
* 37697+31936                        27670.0000    24243.0720            12.38%
  37704 34968    27538.8900   588    27670.0000    24243.0720   393003   12.38%
* 39127+32098                        27600.0000    24243.0720            12.16%
  39255 36486    26512.3556   427    27600.0000    24243.0720   406166   12.16%
Elapsed time = 9.00 sec. (13761.18 ticks, tree = 133.01 MB, solutions = 37)
* 39502+32098                        27580.0000    24243.0720            12.10%
* 39521+32098                        27570.0000    24243.0720            12.07%
* 39791+32098                        27556.0000    24243.0720            12.02%
* 40023+32098                        27506.0000    24243.0720            11.86%
  40570 37551    25181.0163   930    27506.0000    24243.0720   422893   11.86%

GUB cover cuts applied:  0
Clique cuts applied:  0
Mixed integer rounding cuts applied:  610
Flow path cuts applied:  0
Zero-half cuts applied:  16
Gomory fractional cuts applied:  18

Root node processing (before b&c):
  Real time             =    0.35 sec. (414.34 ticks)
Parallel b&c, 8 threads:
  Real time             =    9.66 sec. (15201.81 ticks)
  Sync time (average)   =    0.68 sec.
  Wait time (average)   =    0.00 sec.
                          ------------
Total (root+branch&cut) =   10.01 sec. (15616.15 ticks)
Gap: 11.86%
Upper bound: 27506
Lower bound: 24243.1
End of CPLEX run. Time: 10.0086 seconds

===== New CPLEX run =====
Instance: /home/yorig/tuner/mpils-tests/instances/miplib/medium-1/neos-3024952-loue.mps
Config: /scratch/yorig/mpils-results-grid-seconds-10-no-mip-start/medium-1/4proc/seed-4/9_neos-3024952-loue_seed-4_20260503_044340/iterated_local_search/run_2_worker_1/ils_config_2600117100927082050.prm
========================

Selected objective sense:  MINIMIZE
Selected objective  name:  R3706
Selected RHS        name:  B
Selected bound      name:  BOUND
Version identifier: 22.1.2.0 | 2024-11-26 | 0edbb82fd
CPXPARAM_Threads                                 8
CPXPARAM_Parallel                                1
CPXPARAM_MIP_Cuts_Cliques                        2
CPXPARAM_MIP_Strategy_NodeSelect                 0
CPXPARAM_MIP_Cuts_FlowCovers                     -1
CPXPARAM_MIP_Cuts_Implied                        -1
CPXPARAM_MIP_Cuts_GUBCovers                      2
CPXPARAM_MIP_Cuts_PathCut                        2
CPXPARAM_MIP_Cuts_MIRCut                         2
CPXPARAM_Emphasis_MIP                            1
CPXPARAM_TimeLimit                               10
CPXPARAM_MIP_Limits_ProbeTime                    60
27 of 27 MIP starts provided solutions.
MIP start 'm1' defined initial solution with objective 27890.0000.
Tried aggregator 2 times.
MIP Presolve eliminated 40 rows and 0 columns.
MIP Presolve modified 80 coefficients.
Aggregator did 32 substitutions.
Reduced MIP has 3633 rows, 3223 columns, and 15906 nonzeros.
Reduced MIP has 0 binaries, 3223 generals, 0 SOSs, and 0 indicators.
Presolve time = 0.01 sec. (7.72 ticks)
Tried aggregator 1 time.
Detecting symmetries...
Reduced MIP has 3633 rows, 3223 columns, and 15906 nonzeros.
Reduced MIP has 0 binaries, 3223 generals, 0 SOSs, and 0 indicators.
Presolve time = 0.01 sec. (8.53 ticks)
MIP emphasis: integer feasibility.
MIP search method: dynamic search.
Parallel mode: deterministic, using up to 8 threads.
Root relaxation solution time = 0.14 sec. (166.79 ticks)

        Nodes                                         Cuts/
   Node  Left     Objective  IInf  Best Integer    Best Bound    ItCnt     Gap

*     0+    0                        27890.0000 -3965000.0000              --- 
      0     0    22882.0000   397    27890.0000    22882.0000     3901   17.96%
      0     0    23621.5017   727    27890.0000     Cuts: 491     4422   15.30%
      0     0    23799.4952   886    27890.0000     Cuts: 232     4569   14.67%
      0     0    23874.9587   882    27890.0000     Cuts: 133     4628   14.40%
*     0+    0                        27870.0000    23874.9587            14.33%
      0     0  -1.00000e+75     0    27870.0000    23874.9587     4628   14.33%
Detecting symmetries...
      0     2    23874.9587   882    27870.0000    23874.9587     4628   14.33%
Elapsed time = 0.44 sec. (532.46 ticks, tree = 0.02 MB, solutions = 28)
*    79+    3                        27850.0000    23874.9587            14.27%
    923   797    24449.7286   763    27850.0000    23874.9587    10837   14.27%
   1932  1893    25690.1359   654    27850.0000    23874.9587    20179   14.27%
   2594  2453        cutoff          27850.0000    23874.9587    24608   14.27%
   3202  2812    27831.6270   568    27850.0000    23874.9587    30409   14.27%
   3735  3203    24488.7012   848    27850.0000    23874.9587    35137   14.27%
   4304  3763    26467.2179   794    27850.0000    23874.9587    40368   14.27%
   4993  4357    25388.4486   851    27850.0000    23874.9587    45673   14.27%

Performing restart 1

Repeating presolve.
Tried aggregator 1 time.
MIP Presolve modified 16 coefficients.
Reduced MIP has 3633 rows, 3223 columns, and 15892 nonzeros.
Reduced MIP has 0 binaries, 3223 generals, 0 SOSs, and 0 indicators.
Presolve time = 0.00 sec. (6.35 ticks)
Tried aggregator 1 time.
Reduced MIP has 3633 rows, 3223 columns, and 15892 nonzeros.
Reduced MIP has 0 binaries, 3223 generals, 0 SOSs, and 0 indicators.
Presolve time = 0.01 sec. (8.75 ticks)
Represolve time = 0.02 sec. (26.69 ticks)
   5061     0    24412.0453   934    27850.0000     Cuts: 310    54679   12.34%
*  5061+    0                        27840.0000    24412.0453            12.31%
   5061     0    24606.3008   985    27840.0000     Cuts: 226    54825   11.62%
   5061     0    24815.1443  1135    27840.0000     Cuts: 191    54997   10.87%
*  5061+    0                        27830.0000    24815.1443            10.83%
   5061     2    24815.1443  1135    27830.0000    26172.8985    54997    5.95%
   5181   121    26007.9295   835    27830.0000    26172.8985    56445    5.95%
   6945  1689    27717.1628   527    27830.0000    26172.8985    76786    5.95%
Elapsed time = 4.03 sec. (5433.48 ticks, tree = 5.44 MB, solutions = 32)
   9153  3114    27816.8725   429    27830.0000    26172.8985    93224    5.95%
  13035  5790        cutoff          27830.0000    26172.8985   126041    5.95%
  17060  8575    26647.4202   601    27830.0000    26172.8985   156112    5.95%
  21250 11383    27115.6433   617    27830.0000    26172.8985   182873    5.95%
  25436 14606    27826.2585   442    27830.0000    26172.8985   214093    5.95%
  29438 17056    27069.9872   622    27830.0000    26172.8985   240863    5.95%
  33485 20191    27802.1845   636    27830.0000    26172.8985   276549    5.95%
  37411 21904    27746.3398   562    27830.0000    26172.8985   299348    5.95%
* 37855+22286                        27790.0000    26172.8985             5.82%
* 37960+22286                        27610.0000    26172.8985             5.21%
  39506 22237        cutoff          27610.0000    26172.8985   317478    5.21%

GUB cover cuts applied:  0
Clique cuts applied:  0
Mixed integer rounding cuts applied:  347
Flow path cuts applied:  0
Zero-half cuts applied:  26
Gomory fractional cuts applied:  89

Root node processing (before b&c):
  Real time             =    0.44 sec. (530.77 ticks)
Parallel b&c, 8 threads:
  Real time             =    9.58 sec. (14599.51 ticks)
  Sync time (average)   =    0.75 sec.
  Wait time (average)   =    0.00 sec.
                          ------------
Total (root+branch&cut) =   10.02 sec. (15130.28 ticks)
Gap: 5.21%
Upper bound: 27610
Lower bound: 26172.9
End of CPLEX run. Time: 10.017 seconds

===== New CPLEX run =====
Instance: /home/yorig/tuner/mpils-tests/instances/miplib/medium-1/neos-3024952-loue.mps
Config: /scratch/yorig/mpils-results-grid-seconds-10-no-mip-start/medium-1/4proc/seed-4/9_neos-3024952-loue_seed-4_20260503_044340/iterated_local_search/run_2_worker_1/ils_config_7711784708868258984.prm
========================

Selected objective sense:  MINIMIZE
Selected objective  name:  R3706
Selected RHS        name:  B
Selected bound      name:  BOUND
Version identifier: 22.1.2.0 | 2024-11-26 | 0edbb82fd
CPXPARAM_Threads                                 8
CPXPARAM_Parallel                                1
CPXPARAM_MIP_Cuts_Cliques                        2
CPXPARAM_MIP_Strategy_NodeSelect                 0
CPXPARAM_MIP_Cuts_FlowCovers                     -1
CPXPARAM_MIP_Cuts_Implied                        -1
CPXPARAM_MIP_Cuts_GUBCovers                      2
CPXPARAM_MIP_Cuts_PathCut                        2
CPXPARAM_MIP_Cuts_MIRCut                         2
CPXPARAM_Emphasis_MIP                            1
CPXPARAM_TimeLimit                               10
CPXPARAM_MIP_Limits_ProbeTime                    10
27 of 27 MIP starts provided solutions.
MIP start 'm1' defined initial solution with objective 27890.0000.
Tried aggregator 2 times.
MIP Presolve eliminated 40 rows and 0 columns.
MIP Presolve modified 80 coefficients.
Aggregator did 32 substitutions.
Reduced MIP has 3633 rows, 3223 columns, and 15906 nonzeros.
Reduced MIP has 0 binaries, 3223 generals, 0 SOSs, and 0 indicators.
Presolve time = 0.01 sec. (7.72 ticks)
Tried aggregator 1 time.
Detecting symmetries...
Reduced MIP has 3633 rows, 3223 columns, and 15906 nonzeros.
Reduced MIP has 0 binaries, 3223 generals, 0 SOSs, and 0 indicators.
Presolve time = 0.01 sec. (8.53 ticks)
MIP emphasis: integer feasibility.
MIP search method: dynamic search.
Parallel mode: deterministic, using up to 8 threads.
Root relaxation solution time = 0.13 sec. (166.79 ticks)

        Nodes                                         Cuts/
   Node  Left     Objective  IInf  Best Integer    Best Bound    ItCnt     Gap

*     0+    0                        27890.0000 -3965000.0000              --- 
      0     0    22882.0000   397    27890.0000    22882.0000     3901   17.96%
      0     0    23621.5017   727    27890.0000     Cuts: 491     4422   15.30%
      0     0    23799.4952   886    27890.0000     Cuts: 232     4569   14.67%
      0     0    23874.9587   882    27890.0000     Cuts: 133     4628   14.40%
*     0+    0                        27870.0000    23874.9587            14.33%
      0     0  -1.00000e+75     0    27870.0000    23874.9587     4628   14.33%
Detecting symmetries...
      0     2    23874.9587   882    27870.0000    23874.9587     4628   14.33%
Elapsed time = 0.47 sec. (532.46 ticks, tree = 0.02 MB, solutions = 28)
*    79+    3                        27850.0000    23874.9587            14.27%
    923   797    24449.7286   763    27850.0000    23874.9587    10837   14.27%
   1932  1893    25690.1359   654    27850.0000    23874.9587    20179   14.27%
   2594  2453        cutoff          27850.0000    23874.9587    24608   14.27%
   3202  2812    27831.6270   568    27850.0000    23874.9587    30409   14.27%
   3735  3203    24488.7012   848    27850.0000    23874.9587    35137   14.27%
   4304  3763    26467.2179   794    27850.0000    23874.9587    40368   14.27%
   4993  4357    25388.4486   851    27850.0000    23874.9587    45673   14.27%

Performing restart 1

Repeating presolve.
Tried aggregator 1 time.
MIP Presolve modified 16 coefficients.
Reduced MIP has 3633 rows, 3223 columns, and 15892 nonzeros.
Reduced MIP has 0 binaries, 3223 generals, 0 SOSs, and 0 indicators.
Presolve time = 0.00 sec. (6.35 ticks)
Tried aggregator 1 time.
Reduced MIP has 3633 rows, 3223 columns, and 15892 nonzeros.
Reduced MIP has 0 binaries, 3223 generals, 0 SOSs, and 0 indicators.
Presolve time = 0.01 sec. (8.75 ticks)
Represolve time = 0.02 sec. (26.69 ticks)
   5061     0    24412.0453   934    27850.0000     Cuts: 310    54679   12.34%
*  5061+    0                        27840.0000    24412.0453            12.31%
   5061     0    24606.3008   985    27840.0000     Cuts: 226    54825   11.62%
   5061     0    24815.1443  1135    27840.0000     Cuts: 191    54997   10.87%
*  5061+    0                        27830.0000    24815.1443            10.83%
   5061     2    24815.1443  1135    27830.0000    26172.8985    54997    5.95%
   5181   121    26007.9295   835    27830.0000    26172.8985    56445    5.95%
   6945  1689    27717.1628   527    27830.0000    26172.8985    76786    5.95%
Elapsed time = 4.05 sec. (5433.48 ticks, tree = 5.44 MB, solutions = 32)
   9153  3114    27816.8725   429    27830.0000    26172.8985    93224    5.95%
  13035  5790        cutoff          27830.0000    26172.8985   126041    5.95%
  17060  8575    26647.4202   601    27830.0000    26172.8985   156112    5.95%
  21250 11383    27115.6433   617    27830.0000    26172.8985   182873    5.95%
  25436 14606    27826.2585   442    27830.0000    26172.8985   214093    5.95%
  29438 17056    27069.9872   622    27830.0000    26172.8985   240863    5.95%
  33485 20191    27802.1845   636    27830.0000    26172.8985   276549    5.95%
  37411 21904    27746.3398   562    27830.0000    26172.8985   299348    5.95%
* 37855+22286                        27790.0000    26172.8985             5.82%
* 37960+22286                        27610.0000    26172.8985             5.21%
  39506 22237        cutoff          27610.0000    26172.8985   317478    5.21%

GUB cover cuts applied:  0
Clique cuts applied:  0
Mixed integer rounding cuts applied:  347
Flow path cuts applied:  0
Zero-half cuts applied:  26
Gomory fractional cuts applied:  89

Root node processing (before b&c):
  Real time             =    0.47 sec. (530.75 ticks)
Parallel b&c, 8 threads:
  Real time             =    9.55 sec. (14543.22 ticks)
  Sync time (average)   =    0.76 sec.
  Wait time (average)   =    0.00 sec.
                          ------------
Total (root+branch&cut) =   10.02 sec. (15073.97 ticks)
Gap: 5.21%
Upper bound: 27610
Lower bound: 26172.9
End of CPLEX run. Time: 10.019 seconds

===== New CPLEX run =====
Instance: /home/yorig/tuner/mpils-tests/instances/miplib/medium-1/neos-3024952-loue.mps
Config: /scratch/yorig/mpils-results-grid-seconds-10-no-mip-start/medium-1/4proc/seed-4/9_neos-3024952-loue_seed-4_20260503_044340/iterated_local_search/run_2_worker_1/ils_config_6128185960980110472.prm
========================

Selected objective sense:  MINIMIZE
Selected objective  name:  R3706
Selected RHS        name:  B
Selected bound      name:  BOUND
Version identifier: 22.1.2.0 | 2024-11-26 | 0edbb82fd
CPXPARAM_Threads                                 8
CPXPARAM_Parallel                                1
CPXPARAM_MIP_Cuts_Cliques                        2
CPXPARAM_MIP_Strategy_NodeSelect                 0
CPXPARAM_MIP_Cuts_FlowCovers                     -1
CPXPARAM_MIP_Cuts_Implied                        -1
CPXPARAM_MIP_Cuts_GUBCovers                      2
CPXPARAM_MIP_Cuts_PathCut                        2
CPXPARAM_MIP_Cuts_MIRCut                         2
CPXPARAM_Emphasis_MIP                            1
CPXPARAM_TimeLimit                               10
CPXPARAM_MIP_Limits_ProbeTime                    1
27 of 27 MIP starts provided solutions.
MIP start 'm1' defined initial solution with objective 27890.0000.
Tried aggregator 2 times.
MIP Presolve eliminated 40 rows and 0 columns.
MIP Presolve modified 80 coefficients.
Aggregator did 32 substitutions.
Reduced MIP has 3633 rows, 3223 columns, and 15906 nonzeros.
Reduced MIP has 0 binaries, 3223 generals, 0 SOSs, and 0 indicators.
Presolve time = 0.01 sec. (7.72 ticks)
Tried aggregator 1 time.
Detecting symmetries...
Reduced MIP has 3633 rows, 3223 columns, and 15906 nonzeros.
Reduced MIP has 0 binaries, 3223 generals, 0 SOSs, and 0 indicators.
Presolve time = 0.01 sec. (8.53 ticks)
MIP emphasis: integer feasibility.
MIP search method: dynamic search.
Parallel mode: deterministic, using up to 8 threads.
Root relaxation solution time = 0.13 sec. (166.79 ticks)

        Nodes                                         Cuts/
   Node  Left     Objective  IInf  Best Integer    Best Bound    ItCnt     Gap

*     0+    0                        27890.0000 -3965000.0000              --- 
      0     0    22882.0000   397    27890.0000    22882.0000     3901   17.96%
      0     0    23621.5017   727    27890.0000     Cuts: 491     4422   15.30%
      0     0    23799.4952   886    27890.0000     Cuts: 232     4569   14.67%
      0     0    23874.9587   882    27890.0000     Cuts: 133     4628   14.40%
*     0+    0                        27870.0000    23874.9587            14.33%
      0     0  -1.00000e+75     0    27870.0000    23874.9587     4628   14.33%
Detecting symmetries...
      0     2    23874.9587   882    27870.0000    23874.9587     4628   14.33%
Elapsed time = 0.46 sec. (532.46 ticks, tree = 0.02 MB, solutions = 28)
*    79+    3                        27850.0000    23874.9587            14.27%
    923   797    24449.7286   763    27850.0000    23874.9587    10837   14.27%
   1932  1893    25690.1359   654    27850.0000    23874.9587    20179   14.27%
   2594  2453        cutoff          27850.0000    23874.9587    24608   14.27%
   3202  2812    27831.6270   568    27850.0000    23874.9587    30409   14.27%
   3735  3203    24488.7012   848    27850.0000    23874.9587    35137   14.27%
   4304  3763    26467.2179   794    27850.0000    23874.9587    40368   14.27%
   4993  4357    25388.4486   851    27850.0000    23874.9587    45673   14.27%

Performing restart 1

Repeating presolve.
Tried aggregator 1 time.
MIP Presolve modified 16 coefficients.
Reduced MIP has 3633 rows, 3223 columns, and 15892 nonzeros.
Reduced MIP has 0 binaries, 3223 generals, 0 SOSs, and 0 indicators.
Presolve time = 0.00 sec. (6.35 ticks)
Tried aggregator 1 time.
Reduced MIP has 3633 rows, 3223 columns, and 15892 nonzeros.
Reduced MIP has 0 binaries, 3223 generals, 0 SOSs, and 0 indicators.
Presolve time = 0.01 sec. (8.75 ticks)
Represolve time = 0.02 sec. (26.69 ticks)
   5061     0    24412.0453   934    27850.0000     Cuts: 310    54679   12.34%
*  5061+    0                        27840.0000    24412.0453            12.31%
   5061     0    24606.3008   985    27840.0000     Cuts: 226    54825   11.62%
   5061     0    24815.1443  1135    27840.0000     Cuts: 191    54997   10.87%
*  5061+    0                        27830.0000    24815.1443            10.83%
   5061     2    24815.1443  1135    27830.0000    26172.8985    54997    5.95%
   5181   121    26007.9295   835    27830.0000    26172.8985    56445    5.95%
   6945  1689    27717.1628   527    27830.0000    26172.8985    76786    5.95%
Elapsed time = 4.03 sec. (5433.48 ticks, tree = 5.44 MB, solutions = 32)
   9153  3114    27816.8725   429    27830.0000    26172.8985    93224    5.95%
  13035  5790        cutoff          27830.0000    26172.8985   126041    5.95%
  17060  8575    26647.4202   601    27830.0000    26172.8985   156112    5.95%
  21250 11383    27115.6433   617    27830.0000    26172.8985   182873    5.95%
  25436 14606    27826.2585   442    27830.0000    26172.8985   214093    5.95%
  29438 17056    27069.9872   622    27830.0000    26172.8985   240863    5.95%
  33485 20191    27802.1845   636    27830.0000    26172.8985   276549    5.95%
  37411 21904    27746.3398   562    27830.0000    26172.8985   299348    5.95%
* 37855+22286                        27790.0000    26172.8985             5.82%
* 37960+22286                        27610.0000    26172.8985             5.21%
  39506 22237        cutoff          27610.0000    26172.8985   317478    5.21%

GUB cover cuts applied:  0
Clique cuts applied:  0
Mixed integer rounding cuts applied:  347
Flow path cuts applied:  0
Zero-half cuts applied:  26
Gomory fractional cuts applied:  89

Root node processing (before b&c):
  Real time             =    0.46 sec. (530.79 ticks)
Parallel b&c, 8 threads:
  Real time             =    9.56 sec. (14572.41 ticks)
  Sync time (average)   =    0.76 sec.
  Wait time (average)   =    0.00 sec.
                          ------------
Total (root+branch&cut) =   10.02 sec. (15103.20 ticks)
Gap: 5.21%
Upper bound: 27610
Lower bound: 26172.9
End of CPLEX run. Time: 10.0202 seconds
